NAME: cuum940.tsp
TYPE: TSP
COMMENT: User-generated TSP file
DIMENSION: 940
EDGE_WEIGHT_TYPE: EUC_2D
NODE_COORD_SECTION
1 438.0 68.0
2 320.0 83.0
3 469.0 288.0
4 740.0 21.0
5 61.0 794.0
6 220.0 16.0
7 515.0 16.0
8 263.0 469.0
9 541.0 349.0
10 414.0 330.0
11 445.0 218.0
12 464.0 13.0
13 312.0 769.0
14 780.0 931.0
15 842.0 205.0
16 899.0 475.0
17 345.0 208.0
18 743.0 135.0
19 102.0 806.0
20 483.0 35.0
21 613.0 241.0
22 607.0 170.0
23 4.0 566.0
24 399.0 446.0
25 188.0 764.0
26 832.0 406.0
27 42.0 799.0
28 873.0 698.0
29 505.0 779.0
30 391.0 162.0
31 589.0 877.0
32 73.0 156.0
33 167.0 907.0
34 532.0 348.0
35 239.0 583.0
36 878.0 481.0
37 581.0 501.0
38 436.0 485.0
39 16.0 799.0
40 254.0 812.0
41 244.0 58.0
42 836.0 600.0
43 92.0 149.0
44 815.0 835.0
45 474.0 621.0
46 432.0 229.0
47 927.0 62.0
48 475.0 43.0
49 405.0 327.0
50 348.0 44.0
51 829.0 274.0
52 454.0 603.0
53 252.0 598.0
54 857.0 329.0
55 618.0 324.0
56 817.0 362.0
57 863.0 820.0
58 869.0 920.0
59 741.0 39.0
60 22.0 517.0
61 381.0 672.0
62 80.0 845.0
63 826.0 69.0
64 583.0 513.0
65 657.0 3.0
66 230.0 932.0
67 635.0 764.0
68 260.0 337.0
69 408.0 599.0
70 813.0 519.0
71 757.0 180.0
72 134.0 231.0
73 240.0 198.0
74 444.0 813.0
75 912.0 115.0
76 399.0 482.0
77 26.0 521.0
78 893.0 911.0
79 597.0 541.0
80 537.0 90.0
81 413.0 448.0
82 39.0 501.0
83 715.0 917.0
84 838.0 433.0
85 475.0 620.0
86 674.0 762.0
87 662.0 509.0
88 609.0 406.0
89 515.0 660.0
90 800.0 936.0
91 328.0 663.0
92 309.0 615.0
93 434.0 190.0
94 491.0 645.0
95 263.0 31.0
96 376.0 55.0
97 777.0 723.0
98 581.0 156.0
99 638.0 830.0
100 141.0 334.0
101 297.0 373.0
102 175.0 537.0
103 169.0 515.0
104 475.0 70.0
105 166.0 574.0
106 240.0 140.0
107 111.0 604.0
108 701.0 116.0
109 730.0 820.0
110 892.0 709.0
111 54.0 721.0
112 126.0 534.0
113 321.0 215.0
114 560.0 856.0
115 144.0 581.0
116 445.0 548.0
117 544.0 86.0
118 301.0 174.0
119 16.0 4.0
120 270.0 473.0
121 601.0 704.0
122 285.0 618.0
123 69.0 801.0
124 320.0 852.0
125 775.0 927.0
126 79.0 310.0
127 822.0 177.0
128 730.0 246.0
129 889.0 604.0
130 679.0 594.0
131 300.0 359.0
132 832.0 667.0
133 728.0 103.0
134 839.0 379.0
135 517.0 157.0
136 19.0 677.0
137 929.0 157.0
138 572.0 341.0
139 678.0 903.0
140 797.0 851.0
141 442.0 512.0
142 629.0 713.0
143 395.0 310.0
144 749.0 592.0
145 110.0 855.0
146 458.0 379.0
147 379.0 865.0
148 642.0 510.0
149 253.0 847.0
150 108.0 633.0
151 715.0 826.0
152 94.0 908.0
153 139.0 895.0
154 264.0 98.0
155 936.0 237.0
156 28.0 640.0
157 736.0 780.0
158 230.0 34.0
159 415.0 286.0
160 81.0 15.0
161 141.0 559.0
162 273.0 657.0
163 886.0 355.0
164 379.0 503.0
165 205.0 930.0
166 669.0 853.0
167 197.0 410.0
168 416.0 346.0
169 343.0 594.0
170 666.0 934.0
171 189.0 145.0
172 470.0 487.0
173 508.0 150.0
174 586.0 272.0
175 246.0 519.0
176 30.0 177.0
177 869.0 895.0
178 155.0 479.0
179 902.0 331.0
180 410.0 589.0
181 637.0 45.0
182 881.0 791.0
183 278.0 814.0
184 197.0 916.0
185 501.0 545.0
186 893.0 51.0
187 411.0 118.0
188 155.0 766.0
189 788.0 514.0
190 695.0 373.0
191 271.0 706.0
192 141.0 861.0
193 394.0 598.0
194 316.0 670.0
195 556.0 294.0
196 231.0 746.0
197 702.0 751.0
198 653.0 792.0
199 877.0 481.0
200 234.0 655.0
201 501.0 583.0
202 936.0 715.0
203 757.0 198.0
204 194.0 310.0
205 370.0 655.0
206 364.0 566.0
207 766.0 106.0
208 398.0 712.0
209 434.0 629.0
210 870.0 237.0
211 84.0 569.0
212 779.0 237.0
213 560.0 231.0
214 647.0 224.0
215 712.0 121.0
216 731.0 905.0
217 697.0 560.0
218 538.0 781.0
219 916.0 75.0
220 795.0 469.0
221 732.0 27.0
222 158.0 583.0
223 830.0 218.0
224 133.0 263.0
225 797.0 815.0
226 73.0 622.0
227 367.0 784.0
228 830.0 725.0
229 186.0 496.0
230 885.0 47.0
231 472.0 843.0
232 594.0 863.0
233 578.0 532.0
234 128.0 618.0
235 713.0 585.0
236 483.0 290.0
237 199.0 527.0
238 169.0 266.0
239 240.0 814.0
240 595.0 493.0
241 289.0 850.0
242 91.0 248.0
243 850.0 300.0
244 582.0 50.0
245 867.0 592.0
246 574.0 628.0
247 537.0 278.0
248 134.0 358.0
249 903.0 842.0
250 782.0 722.0
251 891.0 120.0
252 295.0 501.0
253 186.0 49.0
254 288.0 817.0
255 564.0 833.0
256 420.0 155.0
257 561.0 815.0
258 340.0 537.0
259 187.0 2.0
260 312.0 280.0
261 839.0 413.0
262 213.0 37.0
263 598.0 729.0
264 563.0 901.0
265 890.0 386.0
266 277.0 600.0
267 618.0 371.0
268 228.0 294.0
269 293.0 244.0
270 212.0 360.0
271 900.0 926.0
272 581.0 155.0
273 892.0 69.0
274 158.0 882.0
275 329.0 325.0
276 650.0 19.0
277 797.0 684.0
278 616.0 528.0
279 843.0 581.0
280 9.0 823.0
281 851.0 82.0
282 569.0 41.0
283 865.0 467.0
284 441.0 387.0
285 267.0 303.0
286 166.0 645.0
287 577.0 589.0
288 449.0 768.0
289 666.0 210.0
290 203.0 670.0
291 506.0 778.0
292 285.0 843.0
293 789.0 304.0
294 531.0 266.0
295 681.0 72.0
296 642.0 912.0
297 13.0 484.0
298 150.0 804.0
299 370.0 175.0
300 916.0 728.0
301 49.0 692.0
302 555.0 403.0
303 431.0 759.0
304 809.0 586.0
305 82.0 879.0
306 731.0 625.0
307 883.0 824.0
308 498.0 806.0
309 905.0 502.0
310 496.0 434.0
311 751.0 486.0
312 209.0 765.0
313 541.0 551.0
314 927.0 294.0
315 302.0 112.0
316 10.0 586.0
317 535.0 252.0
318 227.0 209.0
319 71.0 263.0
320 598.0 741.0
321 6.0 546.0
322 246.0 935.0
323 852.0 786.0
324 282.0 7.0
325 502.0 265.0
326 829.0 734.0
327 61.0 792.0
328 786.0 552.0
329 627.0 883.0
330 169.0 792.0
331 936.0 709.0
332 61.0 372.0
333 904.0 744.0
334 169.0 213.0
335 703.0 134.0
336 306.0 165.0
337 938.0 30.0
338 68.0 165.0
339 364.0 438.0
340 522.0 730.0
341 454.0 830.0
342 330.0 668.0
343 915.0 846.0
344 182.0 271.0
345 579.0 785.0
346 484.0 576.0
347 927.0 588.0
348 185.0 559.0
349 192.0 63.0
350 938.0 534.0
351 467.0 226.0
352 737.0 160.0
353 799.0 317.0
354 822.0 311.0
355 794.0 826.0
356 244.0 629.0
357 617.0 775.0
358 414.0 431.0
359 929.0 196.0
360 422.0 173.0
361 414.0 864.0
362 712.0 427.0
363 497.0 857.0
364 843.0 102.0
365 379.0 823.0
366 402.0 490.0
367 171.0 936.0
368 263.0 767.0
369 62.0 130.0
370 682.0 164.0
371 493.0 729.0
372 634.0 706.0
373 693.0 56.0
374 900.0 930.0
375 867.0 97.0
376 641.0 364.0
377 790.0 223.0
378 704.0 170.0
379 814.0 886.0
380 142.0 541.0
381 695.0 453.0
382 487.0 836.0
383 787.0 813.0
384 245.0 509.0
385 645.0 433.0
386 270.0 237.0
387 589.0 672.0
388 555.0 564.0
389 334.0 566.0
390 364.0 832.0
391 743.0 81.0
392 213.0 825.0
393 794.0 420.0
394 597.0 665.0
395 531.0 107.0
396 108.0 557.0
397 697.0 852.0
398 270.0 346.0
399 197.0 516.0
400 578.0 76.0
401 639.0 468.0
402 239.0 85.0
403 451.0 22.0
404 661.0 509.0
405 810.0 236.0
406 15.0 681.0
407 291.0 239.0
408 355.0 434.0
409 906.0 41.0
410 748.0 855.0
411 646.0 316.0
412 801.0 638.0
413 153.0 684.0
414 597.0 281.0
415 145.0 104.0
416 633.0 921.0
417 660.0 224.0
418 701.0 352.0
419 874.0 793.0
420 553.0 762.0
421 322.0 498.0
422 561.0 263.0
423 502.0 446.0
424 288.0 750.0
425 412.0 879.0
426 160.0 915.0
427 825.0 746.0
428 644.0 867.0
429 676.0 755.0
430 850.0 209.0
431 909.0 297.0
432 722.0 346.0
433 802.0 662.0
434 823.0 69.0
435 875.0 474.0
436 818.0 552.0
437 778.0 211.0
438 512.0 325.0
439 450.0 227.0
440 729.0 531.0
441 640.0 772.0
442 215.0 300.0
443 178.0 832.0
444 422.0 648.0
445 717.0 810.0
446 732.0 321.0
447 327.0 512.0
448 196.0 78.0
449 82.0 408.0
450 209.0 221.0
451 809.0 766.0
452 201.0 376.0
453 499.0 244.0
454 243.0 337.0
455 155.0 330.0
456 225.0 274.0
457 411.0 277.0
458 138.0 774.0
459 151.0 97.0
460 676.0 732.0
461 801.0 389.0
462 371.0 727.0
463 656.0 246.0
464 488.0 543.0
465 181.0 324.0
466 263.0 121.0
467 76.0 321.0
468 573.0 247.0
469 647.0 48.0
470 276.0 69.0
471 428.0 258.0
472 777.0 169.0
473 840.0 50.0
474 344.0 323.0
475 11.0 695.0
476 432.0 459.0
477 544.0 375.0
478 298.0 771.0
479 683.0 336.0
480 409.0 419.0
481 257.0 101.0
482 44.0 872.0
483 898.0 58.0
484 929.0 386.0
485 857.0 803.0
486 840.0 422.0
487 501.0 449.0
488 70.0 697.0
489 37.0 278.0
490 669.0 217.0
491 228.0 855.0
492 830.0 71.0
493 373.0 500.0
494 912.0 906.0
495 393.0 918.0
496 301.0 96.0
497 503.0 894.0
498 93.0 335.0
499 465.0 300.0
500 167.0 387.0
501 777.0 313.0
502 30.0 405.0
503 758.0 476.0
504 91.0 827.0
505 183.0 885.0
506 104.0 46.0
507 549.0 830.0
508 781.0 765.0
509 145.0 50.0
510 702.0 853.0
511 323.0 804.0
512 665.0 662.0
513 568.0 123.0
514 159.0 389.0
515 88.0 103.0
516 63.0 822.0
517 761.0 890.0
518 124.0 852.0
519 621.0 425.0
520 411.0 651.0
521 391.0 151.0
522 670.0 761.0
523 443.0 136.0
524 22.0 407.0
525 556.0 775.0
526 105.0 564.0
527 437.0 340.0
528 750.0 626.0
529 75.0 226.0
530 265.0 821.0
531 304.0 29.0
532 616.0 77.0
533 445.0 646.0
534 736.0 769.0
535 598.0 282.0
536 11.0 88.0
537 733.0 841.0
538 925.0 522.0
539 451.0 397.0
540 298.0 518.0
541 674.0 825.0
542 685.0 142.0
543 90.0 705.0
544 473.0 485.0
545 169.0 601.0
546 665.0 218.0
547 830.0 608.0
548 644.0 187.0
549 411.0 141.0
550 581.0 508.0
551 195.0 521.0
552 813.0 410.0
553 365.0 266.0
554 143.0 95.0
555 668.0 110.0
556 324.0 797.0
557 354.0 239.0
558 320.0 357.0
559 898.0 51.0
560 199.0 443.0
561 309.0 413.0
562 425.0 712.0
563 381.0 115.0
564 592.0 754.0
565 681.0 434.0
566 573.0 397.0
567 587.0 652.0
568 619.0 826.0
569 824.0 800.0
570 518.0 846.0
571 178.0 548.0
572 300.0 179.0
573 844.0 405.0
574 624.0 483.0
575 693.0 614.0
576 852.0 85.0
577 60.0 11.0
578 336.0 895.0
579 202.0 175.0
580 11.0 476.0
581 121.0 217.0
582 833.0 825.0
583 284.0 455.0
584 23.0 217.0
585 217.0 22.0
586 407.0 49.0
587 326.0 682.0
588 557.0 447.0
589 22.0 570.0
590 565.0 645.0
591 54.0 818.0
592 424.0 846.0
593 585.0 840.0
594 288.0 923.0
595 627.0 734.0
596 592.0 767.0
597 718.0 65.0
598 736.0 343.0
599 839.0 204.0
600 538.0 92.0
601 191.0 339.0
602 387.0 897.0
603 10.0 59.0
604 242.0 656.0
605 30.0 639.0
606 790.0 755.0
607 795.0 435.0
608 21.0 617.0
609 892.0 430.0
610 699.0 500.0
611 911.0 101.0
612 920.0 278.0
613 247.0 480.0
614 18.0 297.0
615 33.0 747.0
616 505.0 49.0
617 1.0 891.0
618 900.0 149.0
619 271.0 488.0
620 47.0 757.0
621 755.0 465.0
622 542.0 141.0
623 179.0 195.0
624 479.0 612.0
625 225.0 384.0
626 466.0 573.0
627 616.0 271.0
628 185.0 753.0
629 39.0 13.0
630 575.0 69.0
631 108.0 130.0
632 890.0 207.0
633 538.0 688.0
634 104.0 595.0
635 832.0 95.0
636 425.0 835.0
637 191.0 509.0
638 251.0 417.0
639 701.0 133.0
640 278.0 34.0
641 553.0 534.0
642 573.0 398.0
643 113.0 73.0
644 200.0 668.0
645 117.0 230.0
646 190.0 56.0
647 292.0 8.0
648 820.0 472.0
649 502.0 289.0
650 98.0 405.0
651 703.0 899.0
652 351.0 370.0
653 331.0 806.0
654 181.0 64.0
655 732.0 310.0
656 825.0 765.0
657 242.0 133.0
658 919.0 498.0
659 392.0 444.0
660 845.0 208.0
661 507.0 881.0
662 839.0 143.0
663 884.0 384.0
664 306.0 760.0
665 827.0 668.0
666 559.0 671.0
667 507.0 578.0
668 580.0 501.0
669 565.0 778.0
670 75.0 267.0
671 419.0 754.0
672 275.0 49.0
673 711.0 93.0
674 528.0 692.0
675 290.0 431.0
676 284.0 63.0
677 340.0 242.0
678 777.0 573.0
679 111.0 25.0
680 307.0 826.0
681 218.0 361.0
682 769.0 99.0
683 458.0 805.0
684 284.0 555.0
685 841.0 290.0
686 6.0 187.0
687 462.0 450.0
688 116.0 56.0
689 404.0 281.0
690 187.0 845.0
691 769.0 663.0
692 694.0 254.0
693 173.0 304.0
694 876.0 370.0
695 72.0 767.0
696 782.0 61.0
697 426.0 491.0
698 780.0 538.0
699 780.0 205.0
700 399.0 145.0
701 776.0 314.0
702 234.0 638.0
703 155.0 726.0
704 151.0 82.0
705 534.0 545.0
706 374.0 101.0
707 133.0 635.0
708 740.0 825.0
709 915.0 932.0
710 278.0 916.0
711 811.0 861.0
712 234.0 517.0
713 486.0 808.0
714 469.0 64.0
715 492.0 655.0
716 213.0 199.0
717 172.0 595.0
718 91.0 688.0
719 434.0 859.0
720 479.0 548.0
721 633.0 186.0
722 29.0 443.0
723 396.0 343.0
724 531.0 885.0
725 480.0 689.0
726 524.0 85.0
727 99.0 649.0
728 536.0 553.0
729 588.0 598.0
730 820.0 385.0
731 779.0 550.0
732 832.0 740.0
733 275.0 223.0
734 911.0 231.0
735 763.0 583.0
736 916.0 562.0
737 609.0 319.0
738 193.0 215.0
739 442.0 166.0
740 36.0 131.0
741 262.0 230.0
742 128.0 46.0
743 252.0 143.0
744 736.0 94.0
745 574.0 684.0
746 582.0 797.0
747 170.0 654.0
748 928.0 68.0
749 520.0 339.0
750 376.0 203.0
751 374.0 616.0
752 901.0 857.0
753 595.0 815.0
754 605.0 42.0
755 174.0 647.0
756 685.0 349.0
757 129.0 550.0
758 254.0 88.0
759 476.0 820.0
760 826.0 513.0
761 910.0 290.0
762 262.0 702.0
763 656.0 577.0
764 332.0 508.0
765 833.0 446.0
766 354.0 921.0
767 454.0 56.0
768 560.0 102.0
769 273.0 135.0
770 538.0 94.0
771 346.0 308.0
772 325.0 379.0
773 646.0 90.0
774 412.0 676.0
775 406.0 575.0
776 105.0 888.0
777 815.0 868.0
778 347.0 790.0
779 568.0 911.0
780 578.0 90.0
781 505.0 289.0
782 168.0 10.0
783 429.0 217.0
784 337.0 476.0
785 836.0 691.0
786 320.0 563.0
787 167.0 154.0
788 315.0 649.0
789 198.0 630.0
790 802.0 5.0
791 11.0 86.0
792 611.0 199.0
793 787.0 611.0
794 219.0 563.0
795 570.0 112.0
796 57.0 226.0
797 861.0 613.0
798 346.0 891.0
799 3.0 382.0
800 403.0 578.0
801 634.0 802.0
802 92.0 195.0
803 261.0 89.0
804 259.0 440.0
805 232.0 615.0
806 184.0 127.0
807 109.0 716.0
808 187.0 93.0
809 357.0 14.0
810 740.0 767.0
811 159.0 938.0
812 291.0 44.0
813 697.0 464.0
814 85.0 358.0
815 605.0 476.0
816 207.0 223.0
817 136.0 549.0
818 842.0 614.0
819 646.0 165.0
820 368.0 747.0
821 737.0 720.0
822 359.0 450.0
823 322.0 145.0
824 630.0 926.0
825 122.0 468.0
826 180.0 293.0
827 678.0 535.0
828 874.0 567.0
829 185.0 193.0
830 647.0 933.0
831 569.0 723.0
832 475.0 142.0
833 199.0 731.0
834 333.0 89.0
835 724.0 812.0
836 175.0 556.0
837 529.0 157.0
838 583.0 111.0
839 101.0 89.0
840 299.0 481.0
841 2.0 843.0
842 242.0 731.0
843 729.0 817.0
844 881.0 658.0
845 532.0 587.0
846 489.0 312.0
847 874.0 245.0
848 473.0 471.0
849 866.0 77.0
850 885.0 253.0
851 171.0 406.0
852 407.0 353.0
853 407.0 125.0
854 694.0 660.0
855 555.0 192.0
856 708.0 19.0
857 853.0 910.0
858 189.0 880.0
859 232.0 743.0
860 585.0 588.0
861 878.0 808.0
862 120.0 767.0
863 70.0 184.0
864 36.0 867.0
865 664.0 754.0
866 499.0 335.0
867 383.0 87.0
868 120.0 703.0
869 131.0 923.0
870 896.0 381.0
871 571.0 767.0
872 785.0 787.0
873 574.0 864.0
874 472.0 868.0
875 338.0 809.0
876 524.0 936.0
877 307.0 870.0
878 517.0 386.0
879 532.0 531.0
880 472.0 740.0
881 742.0 936.0
882 359.0 703.0
883 500.0 219.0
884 805.0 401.0
885 657.0 524.0
886 674.0 288.0
887 391.0 938.0
888 499.0 785.0
889 277.0 674.0
890 360.0 456.0
891 59.0 180.0
892 538.0 925.0
893 765.0 228.0
894 902.0 485.0
895 934.0 939.0
896 587.0 239.0
897 30.0 410.0
898 63.0 12.0
899 222.0 348.0
900 735.0 887.0
901 564.0 63.0
902 250.0 453.0
903 715.0 506.0
904 876.0 320.0
905 800.0 312.0
906 761.0 590.0
907 156.0 386.0
908 838.0 257.0
909 594.0 932.0
910 910.0 48.0
911 573.0 165.0
912 712.0 318.0
913 565.0 78.0
914 217.0 515.0
915 757.0 774.0
916 665.0 504.0
917 384.0 94.0
918 919.0 906.0
919 163.0 510.0
920 842.0 663.0
921 837.0 608.0
922 543.0 198.0
923 518.0 85.0
924 242.0 681.0
925 103.0 159.0
926 125.0 590.0
927 181.0 747.0
928 913.0 839.0
929 442.0 237.0
930 78.0 574.0
931 127.0 217.0
932 832.0 923.0
933 863.0 557.0
934 298.0 19.0
935 418.0 14.0
936 779.0 513.0
937 248.0 250.0
938 378.0 525.0
939 83.0 660.0
940 560.0 16.0
EOF





